Set parameter Username
Academic license - for non-commercial use only - expires 2022-06-20
Set parameter LazyConstraints to value 1
Set parameter TimeLimit to value 1800
Gurobi Optimizer version 9.5.1 build v9.5.1rc2 (mac64[x86])
Thread count: 2 physical cores, 4 logical processors, using up to 4 threads
Optimize a model with 1681 rows, 1600 columns and 6360 nonzeros
Model fingerprint: 0xb4bd1dc0
Variable types: 0 continuous, 1600 integer (1600 binary)
Coefficient statistics:
  Matrix range     [1e+00, 7e+02]
  Objective range  [1e+00, 8e+00]
  Bounds range     [1e+00, 1e+00]
  RHS range        [1e+00, 8e+00]
Presolve removed 161 rows and 0 columns
Presolve time: 0.04s
Presolved: 1520 rows, 1600 columns, 6781 nonzeros
Variable types: 0 continuous, 1600 integer (1600 binary)

Root relaxation: objective 3.474955e+01, 427 iterations, 0.02 seconds (0.02 work units)

    Nodes    |    Current Node    |     Objective Bounds      |     Work
 Expl Unexpl |  Obj  Depth IntInf | Incumbent    BestBd   Gap | It/Node Time

     0     0   34.74955    0  132          -   34.74955      -     -    0s
     0     0   35.15058    0  152          -   35.15058      -     -    0s
     0     0   35.52290    0  146          -   35.52290      -     -    1s
     0     0   35.82219    0  162          -   35.82219      -     -    1s
     0     0   35.83672    0  157          -   35.83672      -     -    1s
     0     0   35.83707    0  157          -   35.83707      -     -    1s
     0     0   36.11015    0  157          -   36.11015      -     -    1s
     0     0   36.13150    0  152          -   36.13150      -     -    1s
     0     0   36.16329    0  152          -   36.16329      -     -    1s
     0     0   36.16351    0  151          -   36.16351      -     -    1s
     0     0   36.16734    0  150          -   36.16734      -     -    1s
     0     0   36.16734    0  150          -   36.16734      -     -    1s
     0     2   36.18936    0  150          -   36.18936      -     -    1s
   752   668   43.83827   33  183          -   36.89511      -  18.3    5s
  1129   908   37.87079   20  108          -   37.22642      -  26.6   10s
  2845  1900   39.80382   26   44          -   37.42908      -  24.7   15s
  5173  3852   43.69783   50   12          -   37.50800      -  23.6   20s
  7372  5569   40.40678   38   55          -   37.55214      -  25.4   25s
  9454  7330   49.40418   67   21          -   37.59977      -  27.0   30s
 11540  9092   39.41237   32   46          -   37.63995      -  28.1   35s
 13931 11072   38.43918   31   21          -   37.66204      -  29.1   40s
 16204 12796   42.36940   32   67          -   37.69469      -  30.5   45s
 18870 14740   45.03222   62   12          -   37.71374      -  30.9   52s
 19293 14967   39.48936   29   94          -   37.72133      -  31.0   56s
 21005 16255   38.14201   23  105          -   37.72922      -  31.7   60s
 22458 17625   46.46563   55   41          -   37.74100      -  31.8   65s
